istanza1_48int.txt
istanza1_48int
10
48
1
20.00
1,1,1,1,1,1,1,1,1,1
1,1,1,1,1,1,1,1,1,1
7,24,50,40,48,5,4,12
05:00,21:00
100,50,50,80,70,20,40