istanza1_48int.log

Gurobi 9.5.1 (linux64, Java) logging started ven 10 feb 2023, 12:03:25

Set parameter Username
Academic license - for non-commercial use only - expires 2023-12-01
Set parameter Presolve to value 2
Presolve removed 40880 rows and 1120 columns
Presolve time: 2.85s
Gurobi Optimizer version 9.5.1 build v9.5.1rc2 (linux64)
Thread count: 2 physical cores, 4 logical processors, using up to 4 threads
Optimize a model with 71717 rows, 3430 columns and 252610 nonzeros
Model fingerprint: 0x50c7ec42
Variable types: 0 continuous, 3430 integer (3430 binary)
Coefficient statistics:
  Matrix range     [1e+00, 2e+01]
  Objective range  [1e+01, 1e+01]
  Bounds range     [1e+00, 1e+00]
  RHS range        [1e+00, 2e+02]
Presolve removed 44180 rows and 1120 columns
Presolve time: 2.29s
Presolved: 27537 rows, 2310 columns, 121140 nonzeros
Variable types: 0 continuous, 2310 integer (2310 binary)
Root relaxation presolve removed 10 rows and 0 columns
Root relaxation presolved: 27527 rows, 2320 columns, 118910 nonzeros


Use crossover to convert LP symmetric solution to basic solution...

Root relaxation: objective 8.200000e+03, 1657 iterations, 0.65 seconds (0.28 work units)
Total elapsed time = 5.18s

    Nodes    |    Current Node    |     Objective Bounds      |     Work
 Expl Unexpl |  Obj  Depth IntInf | Incumbent    BestBd   Gap | It/Node Time

     0     0 8200.00000    0   62          - 8200.00000      -     -    5s
H    0     0                    8200.0000000 8200.00000  0.00%     -    5s
     0     0 8200.00000    0   62 8200.00000 8200.00000  0.00%     -    5s

Explored 1 nodes (5758 simplex iterations) in 5.50 seconds (3.11 work units)
Thread count was 4 (of 4 available processors)

Solution count 1: 8200 

Optimal solution found (tolerance 1.00e-04)
Best objective 8.200000000000e+03, best bound 8.200000000000e+03, gap 0.0000%

Gurobi 9.5.1 (linux64, Java) logging started ven 10 feb 2023, 12:08:12

Set parameter Username
Academic license - for non-commercial use only - expires 2023-12-01
Set parameter Presolve to value 2
Presolve removed 40880 rows and 1120 columns
Presolve time: 1.82s
Gurobi Optimizer version 9.5.1 build v9.5.1rc2 (linux64)
Thread count: 2 physical cores, 4 logical processors, using up to 4 threads
Optimize a model with 71717 rows, 3430 columns and 252610 nonzeros
Model fingerprint: 0x50c7ec42
Variable types: 0 continuous, 3430 integer (3430 binary)
Coefficient statistics:
  Matrix range     [1e+00, 2e+01]
  Objective range  [1e+01, 1e+01]
  Bounds range     [1e+00, 1e+00]
  RHS range        [1e+00, 2e+02]
Presolve removed 44180 rows and 1120 columns
Presolve time: 2.44s
Presolved: 27537 rows, 2310 columns, 121140 nonzeros
Variable types: 0 continuous, 2310 integer (2310 binary)
Root relaxation presolve removed 10 rows and 0 columns
Root relaxation presolved: 27527 rows, 2320 columns, 118910 nonzeros


Use crossover to convert LP symmetric solution to basic solution...

Root relaxation: objective 8.200000e+03, 1657 iterations, 0.46 seconds (0.28 work units)

    Nodes    |    Current Node    |     Objective Bounds      |     Work
 Expl Unexpl |  Obj  Depth IntInf | Incumbent    BestBd   Gap | It/Node Time

     0     0 8200.00000    0   62          - 8200.00000      -     -    4s
H    0     0                    8200.0000000 8200.00000  0.00%     -    4s
     0     0 8200.00000    0   62 8200.00000 8200.00000  0.00%     -    4s

Explored 1 nodes (5758 simplex iterations) in 4.71 seconds (3.11 work units)
Thread count was 4 (of 4 available processors)

Solution count 1: 8200 

Optimal solution found (tolerance 1.00e-04)
Best objective 8.200000000000e+03, best bound 8.200000000000e+03, gap 0.0000%

Gurobi 9.5.1 (linux64, Java) logging started ven 10 feb 2023, 12:10:58

Set parameter Username
Academic license - for non-commercial use only - expires 2023-12-01
Set parameter Presolve to value 2
Presolve removed 40880 rows and 1120 columns
Presolve time: 1.50s
Gurobi Optimizer version 9.5.1 build v9.5.1rc2 (linux64)
Thread count: 2 physical cores, 4 logical processors, using up to 4 threads
Optimize a model with 71717 rows, 3430 columns and 252610 nonzeros
Model fingerprint: 0x50c7ec42
Variable types: 0 continuous, 3430 integer (3430 binary)
Coefficient statistics:
  Matrix range     [1e+00, 2e+01]
  Objective range  [1e+01, 1e+01]
  Bounds range     [1e+00, 1e+00]
  RHS range        [1e+00, 2e+02]
Presolve removed 44180 rows and 1120 columns
Presolve time: 1.78s
Presolved: 27537 rows, 2310 columns, 121140 nonzeros
Variable types: 0 continuous, 2310 integer (2310 binary)
Root relaxation presolve removed 10 rows and 0 columns
Root relaxation presolved: 27527 rows, 2320 columns, 118910 nonzeros


Use crossover to convert LP symmetric solution to basic solution...

Root relaxation: objective 8.200000e+03, 1657 iterations, 0.66 seconds (0.28 work units)

    Nodes    |    Current Node    |     Objective Bounds      |     Work
 Expl Unexpl |  Obj  Depth IntInf | Incumbent    BestBd   Gap | It/Node Time

     0     0 8200.00000    0   62          - 8200.00000      -     -    3s
H    0     0                    8200.0000000 8200.00000  0.00%     -    4s
     0     0 8200.00000    0   62 8200.00000 8200.00000  0.00%     -    4s

Explored 1 nodes (5758 simplex iterations) in 4.17 seconds (3.11 work units)
Thread count was 4 (of 4 available processors)

Solution count 1: 8200 

Optimal solution found (tolerance 1.00e-04)
Best objective 8.200000000000e+03, best bound 8.200000000000e+03, gap 0.0000%

Gurobi 9.5.1 (linux64, Java) logging started ven 10 feb 2023, 12:14:46

Set parameter Username
Academic license - for non-commercial use only - expires 2023-12-01
Set parameter Presolve to value 2
Presolve removed 40880 rows and 1120 columns
Presolve time: 1.65s
Gurobi Optimizer version 9.5.1 build v9.5.1rc2 (linux64)
Thread count: 2 physical cores, 4 logical processors, using up to 4 threads
Optimize a model with 71717 rows, 3430 columns and 252610 nonzeros
Model fingerprint: 0x50c7ec42
Variable types: 0 continuous, 3430 integer (3430 binary)
Coefficient statistics:
  Matrix range     [1e+00, 2e+01]
  Objective range  [1e+01, 1e+01]
  Bounds range     [1e+00, 1e+00]
  RHS range        [1e+00, 2e+02]
Presolve removed 44180 rows and 1120 columns
Presolve time: 1.88s
Presolved: 27537 rows, 2310 columns, 121140 nonzeros
Variable types: 0 continuous, 2310 integer (2310 binary)
Root relaxation presolve removed 10 rows and 0 columns
Root relaxation presolved: 27527 rows, 2320 columns, 118910 nonzeros


Use crossover to convert LP symmetric solution to basic solution...

Root relaxation: objective 8.200000e+03, 1657 iterations, 0.91 seconds (0.28 work units)
Total elapsed time = 5.77s

    Nodes    |    Current Node    |     Objective Bounds      |     Work
 Expl Unexpl |  Obj  Depth IntInf | Incumbent    BestBd   Gap | It/Node Time

     0     0 8200.00000    0   62          - 8200.00000      -     -    6s
H    0     0                    8200.0000000 8200.00000  0.00%     -    6s
     0     0 8200.00000    0   62 8200.00000 8200.00000  0.00%     -    6s

Explored 1 nodes (5758 simplex iterations) in 6.36 seconds (3.11 work units)
Thread count was 4 (of 4 available processors)

Solution count 1: 8200 

Optimal solution found (tolerance 1.00e-04)
Best objective 8.200000000000e+03, best bound 8.200000000000e+03, gap 0.0000%

Gurobi 9.5.1 (linux64, Java) logging started ven 10 feb 2023, 12:18:32

Set parameter Username
Academic license - for non-commercial use only - expires 2023-12-01
Set parameter Presolve to value 2
Presolve removed 40880 rows and 1120 columns
Presolve time: 1.88s
Gurobi Optimizer version 9.5.1 build v9.5.1rc2 (linux64)
Thread count: 2 physical cores, 4 logical processors, using up to 4 threads
Optimize a model with 71717 rows, 3430 columns and 252610 nonzeros
Model fingerprint: 0x50c7ec42
Variable types: 0 continuous, 3430 integer (3430 binary)
Coefficient statistics:
  Matrix range     [1e+00, 2e+01]
  Objective range  [1e+01, 1e+01]
  Bounds range     [1e+00, 1e+00]
  RHS range        [1e+00, 2e+02]
Presolve removed 44180 rows and 1120 columns
Presolve time: 2.29s
Presolved: 27537 rows, 2310 columns, 121140 nonzeros
Variable types: 0 continuous, 2310 integer (2310 binary)
Root relaxation presolve removed 10 rows and 0 columns
Root relaxation presolved: 27527 rows, 2320 columns, 118910 nonzeros


Use crossover to convert LP symmetric solution to basic solution...

Root relaxation: objective 8.200000e+03, 1657 iterations, 0.70 seconds (0.28 work units)

    Nodes    |    Current Node    |     Objective Bounds      |     Work
 Expl Unexpl |  Obj  Depth IntInf | Incumbent    BestBd   Gap | It/Node Time

     0     0 8200.00000    0   62          - 8200.00000      -     -    4s
H    0     0                    8200.0000000 8200.00000  0.00%     -    4s
     0     0 8200.00000    0   62 8200.00000 8200.00000  0.00%     -    4s

Explored 1 nodes (5758 simplex iterations) in 4.85 seconds (3.11 work units)
Thread count was 4 (of 4 available processors)

Solution count 1: 8200 

Optimal solution found (tolerance 1.00e-04)
Best objective 8.200000000000e+03, best bound 8.200000000000e+03, gap 0.0000%

Gurobi 9.5.1 (linux64, Java) logging started ven 10 feb 2023, 12:28:04

Set parameter Username
Academic license - for non-commercial use only - expires 2023-12-01
Set parameter Presolve to value 2
Presolve removed 40880 rows and 1120 columns
Presolve time: 1.83s
Gurobi Optimizer version 9.5.1 build v9.5.1rc2 (linux64)
Thread count: 2 physical cores, 4 logical processors, using up to 4 threads
Optimize a model with 71717 rows, 3430 columns and 252610 nonzeros
Model fingerprint: 0x50c7ec42
Variable types: 0 continuous, 3430 integer (3430 binary)
Coefficient statistics:
  Matrix range     [1e+00, 2e+01]
  Objective range  [1e+01, 1e+01]
  Bounds range     [1e+00, 1e+00]
  RHS range        [1e+00, 2e+02]
Presolve removed 44180 rows and 1120 columns
Presolve time: 2.08s
Presolved: 27537 rows, 2310 columns, 121140 nonzeros
Variable types: 0 continuous, 2310 integer (2310 binary)
Root relaxation presolve removed 10 rows and 0 columns
Root relaxation presolved: 27527 rows, 2320 columns, 118910 nonzeros


Use crossover to convert LP symmetric solution to basic solution...

Root relaxation: objective 8.200000e+03, 1657 iterations, 0.66 seconds (0.28 work units)

    Nodes    |    Current Node    |     Objective Bounds      |     Work
 Expl Unexpl |  Obj  Depth IntInf | Incumbent    BestBd   Gap | It/Node Time

     0     0 8200.00000    0   62          - 8200.00000      -     -    4s
H    0     0                    8200.0000000 8200.00000  0.00%     -    4s
     0     0 8200.00000    0   62 8200.00000 8200.00000  0.00%     -    4s

Explored 1 nodes (5758 simplex iterations) in 4.96 seconds (3.11 work units)
Thread count was 4 (of 4 available processors)

Solution count 1: 8200 

Optimal solution found (tolerance 1.00e-04)
Best objective 8.200000000000e+03, best bound 8.200000000000e+03, gap 0.0000%

Gurobi 9.5.1 (linux64, Java) logging started ven 10 feb 2023, 12:30:48

Set parameter Username
Academic license - for non-commercial use only - expires 2023-12-01
Set parameter Presolve to value 2
Presolve removed 40880 rows and 1120 columns
Presolve time: 1.58s
Gurobi Optimizer version 9.5.1 build v9.5.1rc2 (linux64)
Thread count: 2 physical cores, 4 logical processors, using up to 4 threads
Optimize a model with 71717 rows, 3430 columns and 252610 nonzeros
Model fingerprint: 0x50c7ec42
Variable types: 0 continuous, 3430 integer (3430 binary)
Coefficient statistics:
  Matrix range     [1e+00, 2e+01]
  Objective range  [1e+01, 1e+01]
  Bounds range     [1e+00, 1e+00]
  RHS range        [1e+00, 2e+02]
Presolve removed 44180 rows and 1120 columns
Presolve time: 2.34s
Presolved: 27537 rows, 2310 columns, 121140 nonzeros
Variable types: 0 continuous, 2310 integer (2310 binary)
Root relaxation presolve removed 10 rows and 0 columns
Root relaxation presolved: 27527 rows, 2320 columns, 118910 nonzeros


Use crossover to convert LP symmetric solution to basic solution...

Root relaxation: objective 8.200000e+03, 1657 iterations, 0.57 seconds (0.28 work units)

    Nodes    |    Current Node    |     Objective Bounds      |     Work
 Expl Unexpl |  Obj  Depth IntInf | Incumbent    BestBd   Gap | It/Node Time

     0     0 8200.00000    0   62          - 8200.00000      -     -    4s
H    0     0                    8200.0000000 8200.00000  0.00%     -    5s
     0     0 8200.00000    0   62 8200.00000 8200.00000  0.00%     -    5s

Explored 1 nodes (5758 simplex iterations) in 5.20 seconds (3.11 work units)
Thread count was 4 (of 4 available processors)

Solution count 1: 8200 

Optimal solution found (tolerance 1.00e-04)
Best objective 8.200000000000e+03, best bound 8.200000000000e+03, gap 0.0000%
